decision_x1=[0,4];
decision_x2=[0,4];
decision_x3=[0,4];
decision_x4=[0,4];
decision_x5=[0,4];
decision_x6=[0,4];
random_y1=[0,4];
random_y2=[0,4];
random_y3=[0,4];
constraint_x2_x1=[
0,1,6.1|
0,2,5.6|
0,3,8.3|
0,4,6.1|
1,0,3.7|
1,2,6.9|
1,3,3.9|
1,4,1.2|
2,0,1.7|
2,1,4.9|
2,3,3.6|
2,4,6.2|
3,0,2.1|
3,1,2.4|
3,2,1.7|
3,4,3.6|
4,0,0.98|
4,1,3.7|
4,2,9.4|
4,3,6.1|
];
constraint_x4_x2=[
0,1,8.2|
0,2,1.5|
0,3,2.4|
0,4,7.7|
1,0,3.3|
1,2,0.21|
1,3,6.3|
1,4,9.2|
2,0,1.8|
2,1,0.93|
2,3,1.5|
2,4,5.3|
3,0,8.2|
3,1,3.7|
3,2,4.2|
3,4,6.1|
4,0,9.7|
4,1,3.1|
4,2,7.3|
4,3,0.068|
];
constraint_x4_x3=[
0,1,8.2|
0,2,5.2|
0,3,2.9|
0,4,9.1|
1,0,9.9|
1,2,3.4|
1,3,7.1|
1,4,0.15|
2,0,8|
2,1,6.3|
2,3,0.79|
2,4,9.1|
3,0,0.38|
3,1,3.5|
3,2,7.5|
3,4,8.1|
4,0,6.4|
4,1,6.6|
4,2,7.1|
4,3,0.86|
];
constraint_x5_x1=[
0,1,1.3|
0,2,9.3|
0,3,5.3|
0,4,4|
1,0,9.7|
1,2,0.7|
1,3,9.1|
1,4,0.68|
2,0,0.27|
2,1,8.8|
2,3,8.5|
2,4,4.6|
3,0,7.5|
3,1,1.6|
3,2,7.1|
3,4,2.2|
4,0,5.1|
4,1,1.9|
4,2,5.3|
4,3,5.7|
];
constraint_x5_x2=[
0,1,4.2|
0,2,0.85|
0,3,1.2|
0,4,7.8|
1,0,8.2|
1,2,9.1|
1,3,8.6|
1,4,5.5|
2,0,9|
2,1,9.3|
2,3,6.7|
2,4,4.5|
3,0,0.15|
3,1,3.4|
3,2,2.9|
3,4,6.5|
4,0,5.7|
4,1,4.4|
4,2,4.2|
4,3,9.6|
];
constraint_x5_x3=[
0,1,6.6|
0,2,3.2|
0,3,6.4|
0,4,3.5|
1,0,8|
1,2,2.3|
1,3,2.5|
1,4,1.1|
2,0,9.7|
2,1,6.3|
2,3,0.47|
2,4,1.2|
3,0,4.7|
3,1,6.9|
3,2,6.2|
3,4,3.3|
4,0,4.9|
4,1,1.8|
4,2,3.7|
4,3,8.8|
];
constraint_x5_x4=[
0,1,8.5|
0,2,8.5|
0,3,8.3|
0,4,2.8|
1,0,3.9|
1,2,2.1|
1,3,0.41|
1,4,3.8|
2,0,6.5|
2,1,2.7|
2,3,7.9|
2,4,2.1|
3,0,2.9|
3,1,8.2|
3,2,3.4|
3,4,0.45|
4,0,8.2|
4,1,9.7|
4,2,0.14|
4,3,0.65|
];
constraint_x6_x4=[
0,1,3|
0,2,3.4|
0,3,5.9|
0,4,3|
1,0,0.098|
1,2,7.6|
1,3,7.8|
1,4,9.8|
2,0,9.6|
2,1,4.4|
2,3,1.1|
2,4,5.1|
3,0,1.2|
3,1,5.4|
3,2,6.6|
3,4,7.2|
4,0,0.1|
4,1,6.7|
4,2,8.3|
4,3,6.8|
];
constraint_x1_y1=[
0,0,1.7|
0,1,2.8|
0,2,8.9|
0,3,8.7|
0,4,7|
1,0,4.8|
1,1,3.9|
1,2,3.1|
1,3,2.9|
1,4,1.3|
2,0,0.69|
2,1,3.1|
2,2,6.7|
2,3,9.3|
2,4,4.9|
3,0,8.7|
3,1,9.5|
3,2,5.2|
3,3,8.4|
3,4,0.15|
4,0,1.5|
4,1,5.1|
4,2,0.061|
4,3,2.7|
4,4,0.35|
];
constraint_x2_y2=[
0,0,7.1|
0,1,5.1|
0,2,6.3|
0,3,5.9|
0,4,2.6|
1,0,7.7|
1,1,9.8|
1,2,4.3|
1,3,7.9|
1,4,2.1|
2,0,3.5|
2,1,5.3|
2,2,1.3|
2,3,3.7|
2,4,6.9|
3,0,1.1|
3,1,6.7|
3,2,3.9|
3,3,3.1|
3,4,0.2|
4,0,3.1|
4,1,1.7|
4,2,2.6|
4,3,3.1|
4,4,5.6|
];
constraint_x3_y3=[
0,0,7.4|
0,1,3.4|
0,2,1.7|
0,3,8|
0,4,2.2|
1,0,2.5|
1,1,3.8|
1,2,1.2|
1,3,8.3|
1,4,8.3|
2,0,6.7|
2,1,9.3|
2,2,7.3|
2,3,7.8|
2,4,2.4|
3,0,2.9|
3,1,2.2|
3,2,7.4|
3,3,7.2|
3,4,5.4|
4,0,6.1|
4,1,7.3|
4,2,1.7|
4,3,1.8|
4,4,8.6|
];
initial_distribution_y1=[0.087,0.14,0.18,0.28,0.31];
initial_distribution_y2=[0.33,0.36,0.029,0.07,0.21];
initial_distribution_y3=[0.31,0.17,0.29,0.013,0.22];
transition_y1=[
0.26,0.26,0.12,0.24,0.12|
0.25,0.094,0.3,0.086,0.26|
0.26,0.21,0.025,0.3,0.21|
0.21,0.27,0.25,0.13,0.15|
0.24,0.28,0.14,0.063,0.28|
];
transition_y2=[
0.19,0.15,0.31,0.18,0.16|
0.24,0.19,0.12,0.35,0.11|
0.32,0.1,0.31,0.14,0.13|
0.12,0.36,0.13,0.25,0.14|
0.38,0.17,0.13,0.016,0.3|
];
transition_y3=[
0.04,0.14,0.34,0.26,0.22|
0.093,0.12,0.25,0.24,0.3|
0.2,0.26,0.022,0.27,0.24|
0.045,0.23,0.28,0.24,0.2|
0.3,0.26,0.077,0.087,0.27|
];
